Route #1: 50 18 24 49
Route #2: 23 41 42 43 1
Route #3: 22 28 2
Route #4: 30 48 21
Route #5: 47 36 37 20
Route #6: 15 5 29 45
Route #7: 27 13 54 52
Route #8: 46 35 7 26
Route #9: 17 40
Route #10: 9 39 12
Route #11: 51 3 44 32
Route #12: 16 33 6
Route #13: 25 31 10
Route #14: 38 11
Route #15: 53 14 19
Route #16: 8 34 4
Cost 960